decision_x1=[0,4];
decision_x2=[0,4];
decision_x3=[0,4];
decision_x4=[0,4];
decision_x5=[0,4];
decision_x6=[0,4];
decision_x7=[0,4];
decision_x8=[0,4];
random_y1=[0,4];
random_y2=[0,4];
random_y3=[0,4];
random_y4=[0,4];
constraint_x5_x1=[
0,1,4.4|
0,2,8.6|
0,3,8.8|
0,4,7.8|
1,0,3.5|
1,2,4.1|
1,3,5.8|
1,4,2.6|
2,0,6.1|
2,1,5|
2,3,1.3|
2,4,2|
3,0,7.8|
3,1,4.5|
3,2,3.7|
3,4,10|
4,0,7|
4,1,2.7|
4,2,6.2|
4,3,2.8|
];
constraint_x5_x4=[
0,1,6.3|
0,2,8.7|
0,3,1.3|
0,4,7|
1,0,8.7|
1,2,4.9|
1,3,3.8|
1,4,2.1|
2,0,2.7|
2,1,8.6|
2,3,1|
2,4,5|
3,0,9.5|
3,1,9.2|
3,2,1.8|
3,4,4|
4,0,4.1|
4,1,6.4|
4,2,9.1|
4,3,5.3|
];
constraint_x6_x1=[
0,1,6.5|
0,2,0.0023|
0,3,3.7|
0,4,9.1|
1,0,0.14|
1,2,6.3|
1,3,8.1|
1,4,0.33|
2,0,8.5|
2,1,1.2|
2,3,3.4|
2,4,9.7|
3,0,8.4|
3,1,0.37|
3,2,7.4|
3,4,5.3|
4,0,3.1|
4,1,5.2|
4,2,8.6|
4,3,7.8|
];
constraint_x6_x3=[
0,1,9.5|
0,2,0.36|
0,3,5.9|
0,4,2.5|
1,0,0.061|
1,2,7.9|
1,3,0.84|
1,4,5.5|
2,0,7.5|
2,1,4.4|
2,3,1.7|
2,4,8.4|
3,0,3.4|
3,1,8.5|
3,2,4.1|
3,4,2.2|
4,0,9.9|
4,1,7.8|
4,2,7.7|
4,3,8.7|
];
constraint_x6_x4=[
0,1,9.9|
0,2,1.5|
0,3,1.4|
0,4,9.9|
1,0,3.2|
1,2,3.4|
1,3,7.2|
1,4,8|
2,0,1.6|
2,1,7.2|
2,3,3|
2,4,3.7|
3,0,6.3|
3,1,3.9|
3,2,4.1|
3,4,7.3|
4,0,3.6|
4,1,7.5|
4,2,0.069|
4,3,6.1|
];
constraint_x6_x5=[
0,1,8.2|
0,2,8.1|
0,3,6.5|
0,4,0.92|
1,0,8.6|
1,2,0.31|
1,3,2.6|
1,4,9.6|
2,0,2.4|
2,1,2.3|
2,3,6|
2,4,0.21|
3,0,5.5|
3,1,2.2|
3,2,4.8|
3,4,4.8|
4,0,1.1|
4,1,5.2|
4,2,0.76|
4,3,9.1|
];
constraint_x7_x1=[
0,1,5.2|
0,2,9.2|
0,3,0.67|
0,4,9.9|
1,0,9.5|
1,2,2.3|
1,3,0.17|
1,4,7.2|
2,0,0.9|
2,1,9.8|
2,3,4.9|
2,4,4.8|
3,0,3.1|
3,1,0.54|
3,2,4.1|
3,4,8.2|
4,0,9.6|
4,1,8.7|
4,2,7.8|
4,3,3.8|
];
constraint_x7_x2=[
0,1,6.1|
0,2,7.3|
0,3,7.5|
0,4,2.1|
1,0,3.7|
1,2,2.5|
1,3,6.4|
1,4,4.4|
2,0,1.5|
2,1,8.9|
2,3,8.2|
2,4,5|
3,0,4.1|
3,1,5|
3,2,5.7|
3,4,2.9|
4,0,6.3|
4,1,5.9|
4,2,2.5|
4,3,7.3|
];
constraint_x7_x3=[
0,1,4.8|
0,2,3.7|
0,3,2.1|
0,4,6|
1,0,3|
1,2,6.1|
1,3,1.8|
1,4,6.2|
2,0,9.4|
2,1,3.8|
2,3,1.4|
2,4,9.2|
3,0,1.5|
3,1,4.7|
3,2,2.7|
3,4,0.53|
4,0,4.3|
4,1,0.32|
4,2,4.8|
4,3,8.4|
];
constraint_x7_x5=[
0,1,4.1|
0,2,4.9|
0,3,3.3|
0,4,9.1|
1,0,6.6|
1,2,6.4|
1,3,7.2|
1,4,8.5|
2,0,4.3|
2,1,6.8|
2,3,4.3|
2,4,1.7|
3,0,7.8|
3,1,6.3|
3,2,0.92|
3,4,1|
4,0,2.2|
4,1,3.7|
4,2,4.6|
4,3,0.37|
];
constraint_x8_x1=[
0,1,6.8|
0,2,2.1|
0,3,8|
0,4,0.86|
1,0,2.7|
1,2,5|
1,3,8.9|
1,4,7.4|
2,0,5.4|
2,1,4.5|
2,3,1.4|
2,4,4.2|
3,0,1.1|
3,1,8.3|
3,2,5|
3,4,6.1|
4,0,7|
4,1,4.1|
4,2,5.7|
4,3,0.65|
];
constraint_x8_x5=[
0,1,7.5|
0,2,4.6|
0,3,9.9|
0,4,9.9|
1,0,1.6|
1,2,8.5|
1,3,7.8|
1,4,4.9|
2,0,2.1|
2,1,1.7|
2,3,4.2|
2,4,1.7|
3,0,4.7|
3,1,9.5|
3,2,3.3|
3,4,7.8|
4,0,1.8|
4,1,4.6|
4,2,9.2|
4,3,1.6|
];
constraint_x8_x6=[
0,1,6.1|
0,2,2.3|
0,3,4.8|
0,4,2.4|
1,0,4.9|
1,2,9.3|
1,3,5.3|
1,4,9.3|
2,0,3.8|
2,1,4|
2,3,6.6|
2,4,2.8|
3,0,5.5|
3,1,7.1|
3,2,0.35|
3,4,8.2|
4,0,5.4|
4,1,9.1|
4,2,0.69|
4,3,2.3|
];
constraint_x8_x7=[
0,1,0.32|
0,2,8.6|
0,3,1|
0,4,9.9|
1,0,6.5|
1,2,9.9|
1,3,1.2|
1,4,1.6|
2,0,1|
2,1,0.41|
2,3,6.7|
2,4,7.6|
3,0,3.6|
3,1,4.1|
3,2,5.1|
3,4,4.8|
4,0,9.8|
4,1,1.3|
4,2,5|
4,3,6.2|
];
constraint_x1_y1=[
0,0,0.43|
0,1,0.24|
0,2,8|
0,3,0.63|
0,4,6.6|
1,0,7.4|
1,1,9.7|
1,2,4.1|
1,3,2.7|
1,4,4.5|
2,0,7.1|
2,1,7.2|
2,2,6.2|
2,3,0.65|
2,4,6.2|
3,0,0.97|
3,1,0.17|
3,2,4.7|
3,3,5.4|
3,4,1.2|
4,0,0.9|
4,1,3.4|
4,2,5.7|
4,3,2.8|
4,4,2.2|
];
constraint_x2_y2=[
0,0,4.3|
0,1,5.4|
0,2,8|
0,3,6.3|
0,4,8.1|
1,0,2.4|
1,1,2.8|
1,2,1.9|
1,3,3.5|
1,4,5.9|
2,0,2.6|
2,1,3.4|
2,2,5.9|
2,3,5.1|
2,4,4.7|
3,0,9.6|
3,1,9.9|
3,2,6.4|
3,3,6|
3,4,1.3|
4,0,9.6|
4,1,9.7|
4,2,4.6|
4,3,1.6|
4,4,9.3|
];
constraint_x3_y3=[
0,0,4.2|
0,1,0.34|
0,2,0.95|
0,3,8|
0,4,6.6|
1,0,8.4|
1,1,6.4|
1,2,2.1|
1,3,8.1|
1,4,1.4|
2,0,8.2|
2,1,8.3|
2,2,6.2|
2,3,8.1|
2,4,0.96|
3,0,2.9|
3,1,6.4|
3,2,7.5|
3,3,7.5|
3,4,7.4|
4,0,8.3|
4,1,6.7|
4,2,3.8|
4,3,7|
4,4,5.2|
];
constraint_x4_y4=[
0,0,0.078|
0,1,2|
0,2,4.1|
0,3,6.5|
0,4,5.9|
1,0,9.3|
1,1,2.9|
1,2,8.8|
1,3,3.2|
1,4,8.4|
2,0,6.7|
2,1,7.7|
2,2,0.53|
2,3,5.5|
2,4,3.5|
3,0,7.4|
3,1,0.21|
3,2,1.7|
3,3,9.8|
3,4,1.2|
4,0,2.3|
4,1,0.5|
4,2,5|
4,3,3|
4,4,0.92|
];
initial_distribution_y1=[0.14,0.12,0.43,0.044,0.26];
initial_distribution_y2=[0.53,0.11,0.011,0.032,0.31];
initial_distribution_y3=[0.029,0.18,0.35,0.33,0.12];
initial_distribution_y4=[0.46,0.44,0.017,0.041,0.047];
transition_y1=[
0.066,0.013,0.34,0.25,0.33|
0.3,0.013,0.24,0.13,0.31|
0.16,0.16,0.35,0.06,0.27|
0.25,0.14,0.26,0.33,0.015|
0.074,0.093,0.3,0.3,0.24|
];
transition_y2=[
0.12,0.27,0.13,0.23,0.25|
0.098,0.083,0.35,0.15,0.32|
0.23,0.2,0.16,0.12,0.29|
0.097,0.32,0.21,0.32,0.046|
0.022,0.03,0.45,0.43,0.074|
];
transition_y3=[
0.11,0.13,0.12,0.34,0.3|
0.28,0.19,0.26,0.076,0.19|
0.13,0.28,0.33,0.12,0.12|
0.11,0.3,0.26,0.054,0.27|
0.33,0.16,0.21,0.27,0.029|
];
transition_y4=[
0.24,0.097,0.31,0.29,0.065|
0.082,0.25,0.23,0.074,0.36|
0.4,0.14,0.12,0.22,0.12|
0.24,0.052,0.24,0.17,0.3|
0.071,0.37,0.022,0.28,0.26|
];
